NAME: instance_1801
TYPE: TSP
DIMENSION: 20
EDGE_WEIGHT_TYPE: EUC_2D
NODE_COORD_SECTION
0 15.94 49.64
1 91.39 71.69
2 5.40 1.25
3 20.78 30.65
4 59.49 39.35
5 97.58 29.68
6 1.23 15.78
7 64.88 30.69
8 23.53 60.05
9 63.90 86.23
10 53.07 6.46
11 43.36 1.32
12 43.92 64.87
13 28.57 96.24
14 89.26 77.16
15 57.16 1.73
16 81.75 33.24
17 98.78 83.23
18 5.37 27.48
19 90.80 55.23
EOF
